p wcnf 4000 400 1
1 1 0
1 2 0
1 3 0
1 4 0
1 5 0
1 6 0
1 7 0
1 8 0
1 9 0
1 10 0
1 11 0
1 12 0
1 13 0
1 14 0
1 15 0
1 1 1 1 1 1 1 1 1 1 1 1 1 1 1 0
1 1 1 1 1 1 1 1 2 2 2 2 2 2 2 0
1 2 2 2 2 2 2 2 2 2 2 2 2 2 2 0
1 2 2 2 2 2 2 2 2 2 2 2 2 2 2 0
1 2 2 3 3 3 3 3 3 3 3 3 3 3 3 0
1 3 3 3 3 3 3 3 3 3 3 3 3 3 3 0
1 3 3 3 3 3 3 3 3 3 3 3 4 4 4 0
1 4 4 4 4 4 4 4 4 4 4 4 4 4 4 0
1 4 4 4 4 4 4 4 4 4 4 4 4 4 4 0
1 4 4 4 4 4 4 4 4 4 5 5 5 5 5 0
1 5 5 5 5 5 5 5 5 5 5 5 5 5 5 0
1 5 5 5 5 5 5 5 5 5 5 5 5 5 5 0
1 5 5 5 5 5 5 5 5 5 5 5 5 5 6 0
1 6 6 6 6 6 6 6 6 6 6 6 6 6 6 0
1 6 6 6 6 6 6 6 6 6 6 6 6 6 6 0
1 6 6 6 7 7 7 7 7 7 7 7 7 7 7 0
1 7 7 7 7 7 7 7 7 7 7 7 7 7 7 0
1 7 7 7 7 7 7 7 7 7 7 7 7 7 7 0
1 7 7 7 7 7 7 8 8 8 8 8 8 8 8 0
1 8 8 8 8 8 8 8 8 8 8 8 8 8 8 0
1 8 8 8 8 8 8 8 8 8 8 8 8 8 8 0
1 8 8 9 9 9 9 9 9 9 9 9 9 9 9 0
1 9 9 9 9 9 9 9 9 9 9 9 9 9 9 0
1 9 9 9 9 9 9 9 9 9 9 10 10 10 10 0
1 10 10 10 10 10 10 10 10 10 10 10 10 10 10 0
1 10 10 10 10 10 10 10 10 10 10 10 10 10 10 0
1 10 10 10 10 10 10 10 10 10 10 10 10 11 11 0
1 11 11 11 11 11 11 11 11 11 11 11 11 11 11 0
1 11 11 11 11 11 11 11 11 11 11 11 11 11 11 0
1 12 12 12 12 12 12 12 12 12 12 12 12 12 12 0
1 12 12 12 12 12 12 12 12 12 12 12 12 12 12 0
1 12 12 13 13 13 13 13 13 13 13 13 13 13 13 0
1 13 13 13 13 13 13 13 13 13 13 13 13 13 13 0
1 13 13 13 13 14 14 14 14 14 14 14 14 14 14 0
1 14 14 14 14 14 14 14 14 14 14 14 14 14 14 0
1 14 14 14 14 14 14 14 14 14 14 14 14 14 15 0
1 15 15 15 15 15 15 15 15 15 15 15 15 15 15 0
1 15 15 15 15 15 15 15 15 15 15 15 15 15 15 0
1 15 15 15 15 15 15 15 15 15 15 15 15 15 15 0
1 16 16 16 16 16 16 16 16 16 16 16 16 16 16 0
1 16 16 16 16 16 16 16 16 16 16 16 16 16 16 0
1 16 16 16 16 16 17 17 17 17 17 17 17 17 17 0
1 17 17 17 17 17 17 17 17 17 17 17 17 17 17 0
1 17 17 17 17 17 17 17 17 17 17 17 17 17 17 0
1 17 17 17 18 18 18 18 18 18 18 18 18 18 18 0
1 18 18 18 18 18 18 18 18 18 18 18 18 18 18 0
1 18 18 18 19 19 19 19 19 19 19 19 19 19 19 0
1 19 19 19 19 19 19 19 19 19 19 19 19 19 19 0
1 19 19 19 19 19 19 19 19 19 19 20 20 20 20 0
1 20 20 20 20 20 20 20 20 20 20 20 20 20 20 0
1 20 20 20 20 20 20 20 20 20 20 20 20 20 20 0
1 20 20 20 20 20 20 20 20 20 20 20 21 21 21 0
1 21 21 21 21 21 21 21 21 21 21 21 21 21 21 0
1 21 21 21 21 21 21 21 21 21 21 21 21 21 21 0
1 21 21 21 21 21 21 22 22 22 22 22 22 22 22 0
1 22 22 22 22 22 22 22 22 22 22 22 22 22 22 0
1 22 22 22 22 22 22 22 22 22 22 23 23 23 23 0
1 23 23 23 23 23 23 23 23 23 23 23 23 23 23 0
1 23 23 23 23 23 23 23 23 23 23 23 23 23 23 0
1 23 23 23 23 23 23 23 24 24 24 24 24 24 24 0
1 24 24 24 24 24 24 24 24 24 24 24 24 24 24 0
1 24 24 24 24 24 24 24 24 24 24 24 24 24 24 0
1 24 24 25 25 25 25 25 25 25 25 25 25 25 25 0
1 25 25 25 25 25 25 25 25 25 25 25 25 25 25 0
1 25 25 25 25 25 25 25 26 26 26 26 26 26 26 0
1 26 26 26 26 26 26 26 26 26 26 26 26 26 26 0
1 26 26 26 26 26 26 26 26 26 26 26 26 26 26 0
1 27 27 27 27 27 27 27 27 27 27 27 27 27 27 0
1 27 27 27 27 27 27 27 27 27 27 27 27 27 27 0
1 27 27 27 27 27 27 27 28 28 28 28 28 28 28 0
1 28 28 28 28 28 28 28 28 28 28 28 28 28 28 0
1 28 28 28 28 28 28 28 28 28 28 28 28 29 29 0
1 29 29 29 29 29 29 29 29 29 29 29 29 29 29 0
1 29 29 29 29 29 29 29 29 29 29 29 29 29 29 0
1 30 30 30 30 30 30 30 30 30 30 30 30 30 30 0
1 30 30 30 30 30 30 30 30 30 30 30 30 30 30 0
1 30 30 30 30 30 30 30 31 31 31 31 31 31 31 0
1 31 31 31 31 31 31 31 31 31 31 31 31 31 31 0
1 31 31 31 31 31 31 31 31 31 31 31 31 31 31 0
1 32 32 32 32 32 32 32 32 32 32 32 32 32 32 0
1 32 32 32 32 32 32 32 32 32 32 32 32 32 32 0
1 32 32 32 32 32 32 32 32 32 32 32 32 32 32 0
1 32 32 33 33 33 33 33 33 33 33 33 33 33 33 0
1 33 33 33 33 33 33 33 33 33 33 33 33 33 33 0
1 33 33 33 33 33 33 33 33 33 33 33 33 33 34 0
1 34 34 34 34 34 34 34 34 34 34 34 34 34 34 0
1 34 34 34 34 34 34 34 34 34 34 34 34 34 34 0
1 34 34 35 35 35 35 35 35 35 35 35 35 35 35 0
1 35 35 35 35 35 35 35 35 35 35 35 35 35 35 0
1 35 35 35 35 35 35 35 35 35 35 36 36 36 36 0
1 36 36 36 36 36 36 36 36 36 36 36 36 36 36 0
1 36 36 36 36 36 36 36 36 36 36 36 36 36 36 0
1 36 36 37 37 37 37 37 37 37 37 37 37 37 37 0
1 37 37 37 37 37 37 37 37 37 37 37 37 37 37 0
1 37 37 37 37 37 37 37 37 37 37 37 37 37 37 0
1 37 37 37 37 37 37 37 37 37 37 37 37 37 38 0
1 38 38 38 38 38 38 38 38 38 38 38 38 38 38 0
1 38 38 38 38 38 38 38 38 38 38 38 38 38 38 0
1 38 38 38 38 38 38 38 38 38 38 38 38 39 39 0
1 39 39 39 39 39 39 39 39 39 39 39 39 39 39 0
1 39 39 39 39 39 39 39 39 39 39 39 39 39 39 0
1 39 39 39 39 39 39 39 40 40 40 40 40 40 40 0
1 40 40 40 40 40 40 40 40 40 40 40 40 40 40 0
1 40 40 40 40 40 40 40 40 40 40 40 40 40 40 0
1 40 40 40 40 40 41 41 41 41 41 41 41 41 41 0
1 41 41 41 41 41 41 41 41 41 41 41 41 41 41 0
1 41 41 41 41 41 41 41 41 41 41 41 41 41 41 0
1 41 42 42 42 42 42 42 42 42 42 42 42 42 42 0
1 42 42 42 42 42 42 42 42 42 42 42 42 42 42 0
1 42 42 42 42 42 42 42 42 42 43 43 43 43 43 0
1 43 43 43 43 43 43 43 43 43 43 43 43 43 43 0
1 43 43 43 43 43 43 43 43 43 43 43 43 43 43 0
1 43 43 43 43 43 43 43 43 44 44 44 44 44 44 0
1 44 44 44 44 44 44 44 44 44 44 44 44 44 44 0
1 44 44 44 44 44 44 44 44 44 44 44 44 44 44 0
1 44 44 44 45 45 45 45 45 45 45 45 45 45 45 0
1 45 45 45 45 45 45 45 45 45 45 45 45 45 45 0
1 45 45 45 45 46 46 46 46 46 46 46 46 46 46 0
1 46 46 46 46 46 46 46 46 46 46 46 46 46 46 0
1 46 46 46 46 46 46 46 46 46 46 46 46 46 46 0
1 46 46 47 47 47 47 47 47 47 47 47 47 47 47 0
1 47 47 47 47 47 47 47 47 47 47 47 47 47 47 0
1 48 48 48 48 48 48 48 48 48 48 48 48 48 48 0
1 48 48 48 48 48 48 48 48 48 48 48 48 48 48 0
1 48 48 48 48 48 48 48 48 48 48 49 49 49 49 0
1 49 49 49 49 49 49 49 49 49 49 49 49 49 49 0
1 49 49 49 49 49 49 49 49 49 49 49 49 49 49 0
1 49 49 50 50 50 50 50 50 50 50 50 50 50 50 0
1 50 50 50 50 50 50 50 50 50 50 50 50 50 50 0
1 50 50 50 50 50 50 50 50 50 50 50 51 51 51 0
1 51 51 51 51 51 51 51 51 51 51 51 51 51 51 0
1 51 51 51 51 51 51 51 51 51 51 51 51 51 51 0
1 51 51 51 51 51 51 51 51 51 51 51 51 51 51 0
1 51 51 51 51 51 51 51 51 51 51 52 52 52 52 0
1 52 52 52 52 52 52 52 52 52 52 52 52 52 52 0
1 52 52 52 52 52 52 52 52 52 52 52 52 52 52 0
1 52 52 52 52 52 52 52 53 53 53 53 53 53 53 0
1 53 53 53 53 53 53 53 53 53 53 53 53 53 53 0
1 53 53 53 53 53 53 53 53 53 53 53 53 53 53 0
1 53 53 53 53 53 53 53 54 54 54 54 54 54 54 0
1 54 54 54 54 54 54 54 54 54 54 54 54 54 54 0
1 54 54 54 54 55 55 55 55 55 55 55 55 55 55 0
1 55 55 55 55 55 55 55 55 55 55 55 55 55 55 0
1 55 55 55 55 55 55 55 55 55 55 56 56 56 56 0
1 56 56 56 56 56 56 56 56 56 56 56 56 56 56 0
1 56 56 56 56 56 56 56 56 56 56 56 56 56 56 0
1 57 57 57 57 57 57 57 57 57 57 57 57 57 57 0
1 57 57 57 57 57 57 57 57 57 57 57 57 57 57 0
1 57 57 57 57 57 57 57 57 57 57 58 58 58 58 0
1 58 58 58 58 58 58 58 58 58 58 58 58 58 58 0
1 58 58 58 58 58 58 58 58 58 58 58 58 58 58 0
1 58 58 58 58 58 58 58 58 58 58 58 58 58 58 0
1 59 59 59 59 59 59 59 59 59 59 59 59 59 59 0
1 59 59 59 59 59 59 59 59 59 59 59 59 59 59 0
1 59 59 59 59 59 59 59 59 59 60 60 60 60 60 0
1 60 60 60 60 60 60 60 60 60 60 60 60 60 60 0
1 60 60 60 60 60 60 60 60 60 60 60 60 60 60 0
1 60 60 60 60 60 61 61 61 61 61 61 61 61 61 0
1 61 61 61 61 61 61 61 61 61 61 61 61 61 61 0
1 61 61 61 61 61 61 61 61 61 61 62 62 62 62 0
1 62 62 62 62 62 62 62 62 62 62 62 62 62 62 0
1 62 62 62 62 62 62 62 62 62 62 62 62 62 62 0
1 62 63 63 63 63 63 63 63 63 63 63 63 63 63 0
1 63 63 63 63 63 63 63 63 63 63 63 63 63 63 0
1 63 63 63 63 63 63 63 63 63 63 63 63 63 63 0
1 63 63 63 63 63 63 63 63 63 63 63 63 63 64 0
1 64 64 64 64 64 64 64 64 64 64 64 64 64 64 0
1 64 64 64 64 64 64 64 64 64 64 64 64 64 64 0
1 64 64 64 64 64 64 64 64 64 64 65 65 65 65 0
1 65 65 65 65 65 65 65 65 65 65 65 65 65 65 0
1 65 65 65 65 65 65 65 65 65 65 65 65 65 65 0
1 65 65 66 66 66 66 66 66 66 66 66 66 66 66 0
1 66 66 66 66 66 66 66 66 66 66 66 66 66 66 0
1 66 66 66 66 66 66 66 66 66 66 66 66 66 66 0
1 67 67 67 67 67 67 67 67 67 67 67 67 67 67 0
1 67 67 67 67 67 67 67 67 67 67 67 67 67 67 0
1 67 67 67 67 67 67 67 67 67 67 67 67 67 68 0
1 68 68 68 68 68 68 68 68 68 68 68 68 68 68 0
1 68 68 68 68 68 68 68 68 68 68 68 68 68 68 0
1 68 68 68 68 68 68 68 68 68 69 69 69 69 69 0
1 69 69 69 69 69 69 69 69 69 69 69 69 69 69 0
1 69 69 69 69 69 69 69 69 69 69 69 69 69 69 0
1 69 69 69 69 69 69 69 69 69 69 69 69 69 70 0
1 70 70 70 70 70 70 70 70 70 70 70 70 70 70 0
1 70 70 70 70 70 70 70 70 70 70 70 70 70 70 0
1 70 70 70 70 70 70 70 70 70 70 71 71 71 71 0
1 71 71 71 71 71 71 71 71 71 71 71 71 71 71 0
1 71 71 71 71 71 71 71 71 71 71 71 71 71 71 0
1 71 71 71 72 72 72 72 72 72 72 72 72 72 72 0
1 72 72 72 72 72 72 72 72 72 72 72 72 72 72 0
1 72 72 72 72 72 72 72 72 72 72 72 72 72 72 0
1 73 73 73 73 73 73 73 73 73 73 73 73 73 73 0
1 73 73 73 73 73 73 73 73 73 73 73 73 73 73 0
1 73 73 73 73 73 73 74 74 74 74 74 74 74 74 0
1 74 74 74 74 74 74 74 74 74 74 74 74 74 74 0
1 74 74 74 74 74 74 74 74 74 74 74 74 74 74 0
1 74 74 74 74 74 74 74 74 74 74 74 75 75 75 0
1 75 75 75 75 75 75 75 75 75 75 75 75 75 75 0
1 75 75 75 75 75 75 75 75 75 75 75 75 75 75 0
1 75 75 75 75 76 76 76 76 76 76 76 76 76 76 0
1 76 76 76 76 76 76 76 76 76 76 76 76 76 76 0
1 76 76 76 76 76 77 77 77 77 77 77 77 77 77 0
1 77 77 77 77 77 77 77 77 77 77 77 77 77 77 0
1 77 77 77 77 77 77 77 78 78 78 78 78 78 78 0
1 78 78 78 78 78 78 78 78 78 78 78 78 78 78 0
1 78 78 78 78 78 78 78 78 78 78 78 78 78 78 0
1 78 78 78 78 78 78 78 78 78 78 78 78 78 78 0
1 79 79 79 79 79 79 79 79 79 79 79 79 79 79 0
1 79 79 79 79 79 79 79 79 79 79 79 79 79 79 0
1 79 79 80 80 80 80 80 80 80 80 80 80 80 80 0
1 80 80 80 80 80 80 80 80 80 80 80 80 80 80 0
1 80 80 80 80 80 80 80 80 80 80 81 81 81 81 0
1 81 81 81 81 81 81 81 81 81 81 81 81 81 81 0
1 81 81 81 81 81 81 81 81 81 81 81 81 81 81 0
1 81 81 81 81 81 81 81 81 81 81 81 81 81 81 0
1 82 82 82 82 82 82 82 82 82 82 82 82 82 82 0
1 82 82 82 82 82 82 82 82 82 82 82 82 82 82 0
1 82 82 82 82 82 82 82 82 82 82 82 82 82 82 0
1 82 82 82 82 82 82 82 82 82 82 82 82 82 82 0
1 82 82 83 83 83 83 83 83 83 83 83 83 83 83 0
1 83 83 83 83 83 83 83 83 83 83 83 83 83 83 0
1 83 83 83 83 83 83 84 84 84 84 84 84 84 84 0
1 84 84 84 84 84 84 84 84 84 84 84 84 84 84 0
1 84 84 84 84 84 84 84 84 84 84 84 84 84 84 0
1 84 84 84 84 84 84 84 85 85 85 85 85 85 85 0
1 85 85 85 85 85 85 85 85 85 85 85 85 85 85 0
1 85 85 85 85 85 85 85 85 85 85 85 85 85 85 0
1 85 85 85 85 85 85 86 86 86 86 86 86 86 86 0
1 86 86 86 86 86 86 86 86 86 86 86 86 86 86 0
1 86 86 86 86 86 86 87 87 87 87 87 87 87 87 0
1 87 87 87 87 87 87 87 87 87 87 87 87 87 87 0
1 87 87 87 87 87 87 87 87 87 87 87 87 88 88 0
1 88 88 88 88 88 88 88 88 88 88 88 88 88 88 0
1 88 88 88 88 88 88 88 88 88 88 88 88 88 88 0
1 88 88 88 88 88 89 89 89 89 89 89 89 89 89 0
1 89 89 89 89 89 89 89 89 89 89 89 89 89 89 0
1 89 89 89 89 89 89 89 89 89 89 89 89 89 90 0
1 90 90 90 90 90 90 90 90 90 90 90 90 90 90 0
1 90 90 90 90 90 90 90 90 90 90 90 90 90 90 0
1 90 90 90 90 90 90 90 90 90 90 90 90 90 90 0
1 91 91 91 91 91 91 91 91 91 91 91 91 91 91 0
1 91 91 91 91 91 91 91 91 91 91 91 91 91 91 0
1 91 91 91 92 92 92 92 92 92 92 92 92 92 92 0
1 92 92 92 92 92 92 92 92 92 92 92 92 92 92 0
1 92 92 92 92 92 92 92 92 92 92 92 92 92 93 0
1 93 93 93 93 93 93 93 93 93 93 93 93 93 93 0
1 93 93 93 93 93 93 93 93 93 93 93 93 93 93 0
1 93 93 93 93 93 93 93 94 94 94 94 94 94 94 0
1 94 94 94 94 94 94 94 94 94 94 94 94 94 94 0
1 94 94 94 94 94 94 94 94 94 94 94 94 94 94 0
1 95 95 95 95 95 95 95 95 95 95 95 95 95 95 0
1 95 95 95 95 95 95 95 95 95 95 95 95 95 95 0
1 95 95 95 95 95 95 95 95 95 95 95 95 95 96 0
1 96 96 96 96 96 96 96 96 96 96 96 96 96 96 0
1 96 96 96 96 96 96 96 96 96 96 96 96 96 96 0
1 96 96 96 96 96 96 96 96 96 96 96 96 97 97 0
1 97 97 97 97 97 97 97 97 97 97 97 97 97 97 0
1 97 97 97 97 97 97 97 97 97 97 97 97 97 97 0
1 97 97 97 98 98 98 98 98 98 98 98 98 98 98 0
1 98 98 98 98 98 98 98 98 98 98 98 98 98 98 0
1 98 98 98 98 98 98 98 98 99 99 99 99 99 99 0
1 99 99 99 99 99 99 99 99 99 99 99 99 99 99 0
1 99 99 99 99 99 99 99 99 99 99 99 99 99 99 0
1 99 99 100 100 100 100 100 100 100 100 100 100 100 100 0
1 100 100 100 100 100 100 100 100 100 100 100 100 100 100 0
1 100 100 100 100 100 100 100 100 100 0
1  0
1 161 174 175 225 231 241 336 342 383 486 510 557 567 683 0
1 708 741 757 760 793 805 806 920 1033 1095 1132 1152 1237 1257 0
1 1417 1497 1607 1674 1718 1723 1754 1831 2110 2121 2199 2229 2258 2294 0
1 2378 2415 2466 2472 2513 2547 2644 2673 2733 2817 2943 3035 3058 3071 0
1 3160 3239 3323 3375 3381 3399 3444 3473 3528 3536 3698 3857 3928 3955 0
1  0
1  0
1 97 105 121 315 339 340 529 616 646 819 833 859 868 872 0
1 1015 1037 1107 1219 1294 1340 1351 1429 1460 1469 1477 1482 1515 1523 0
1 1590 1705 1718 1790 1861 1868 1935 1963 2078 2103 2111 2146 2165 2252 0
1 2381 2391 2398 2539 2557 2589 2627 2714 2774 2846 2852 2861 2870 2882 0
1 2910 2979 3009 3100 3147 3155 3345 3526 3554 3609 3612 3617 3669 3707 0
1 3781 3850 3921 3983 0
1  0
1 67 93 94 206 220 234 245 265 377 404 502 637 658 683 0
1 721 803 960 1026 1091 1140 1164 1171 1176 1270 1307 1404 1415 1479 0
1 1519 1528 1544 1652 1820 1871 1908 2005 2024 2044 2090 2111 2178 2272 0
1 2466 2535 2597 2740 2769 2935 3079 3095 3244 3277 3316 3337 3340 3473 0
1 3557 3749 3775 3789 3810 3893 3953 3966 3999 0
1  0
1 26 42 146 155 255 257 338 348 381 400 425 680 688 704 0
1 758 768 782 959 1002 1006 1009 1049 1053 1135 1167 1190 1203 1212 0
1 1258 1293 1365 1371 1400 1412 1522 1527 1553 1597 1617 1732 1901 2009 0
1 2212 2217 2221 2247 2261 2435 2477 2510 2533 2683 2688 2721 2785 2806 0
1 2969 2980 3007 3020 3040 3069 3111 3180 3269 3338 3372 3505 3553 3555 0
1 3628 3637 3681 3769 3777 3946 0
1  0
1 94 111 187 400 426 496 506 556 606 640 669 688 722 734 0
1 798 832 855 999 1212 1347 1417 1474 1501 1549 1643 1673 1675 1695 0
1 1747 1909 1939 1980 2046 2144 2206 2272 2276 2296 2301 2313 2414 2468 0
1 2631 2664 2676 2701 2721 2735 2764 2805 2811 2872 2881 2953 2971 2995 0
1 3122 3125 3135 3142 3248 3260 3368 3400 3434 3458 3462 3469 3475 3548 0
1 3653 3694 3704 3717 3723 3768 3841 3898 3932 3943 3977 0
1  0
1 14 175 197 241 253 303 378 437 581 602 706 739 848 877 0
1 988 1138 1294 1413 1447 1546 1613 1655 1701 1745 1765 1793 1889 1891 0
1 2034 2087 2108 2147 2156 2180 2248 2317 2340 2352 2388 2414 2424 2446 0
1 2510 2557 2679 2886 2910 2919 2935 2994 3076 3083 3140 3149 3162 3166 0
1 3258 3429 3483 3495 3503 3571 3588 3691 3715 3717 3745 3771 3791 3808 0
1 3918 0
1  0
1 80 141 153 312 343 345 369 457 518 523 635 720 767 885 0
1 1041 1071 1078 1108 1130 1193 1198 1211 1260 1269 1356 1409 1475 1518 0
1 1693 1756 1851 1893 1951 1972 2213 2407 2416 2455 2486 2753 2780 2827 0
1 2951 2959 2968 2970 2974 3046 3080 3088 3093 3165 3171 3211 3243 3257 0
1 3342 3481 3516 3556 3577 3586 3618 3643 3792 3793 3835 3846 3856 3896 0
1  0
1  0
1 108 132 157 178 208 251 257 259 334 389 452 462 509 594 0
1 784 785 797 820 833 834 879 887 926 928 1060 1065 1135 1195 0
1 1249 1287 1301 1364 1383 1462 1550 1579 1623 1704 1721 1752 1768 1808 0
1 1820 1822 2025 2088 2106 2129 2188 2192 2227 2301 2336 2381 2415 2452 0
1 2519 2551 2557 2669 2675 2701 2738 2749 2763 2790 2882 2930 2987 3043 0
1 3091 3095 3157 3325 3436 3489 3570 3604 3679 3801 3899 3908 3921 3929 0
1  0
1  0
1 42 45 134 182 248 259 274 409 413 522 601 629 732 734 0
1 767 841 909 922 1006 1134 1257 1368 1372 1382 1410 1412 1440 1456 0
1 1585 1641 1727 1773 1779 1787 1809 1825 1928 1937 1977 1983 2148 2232 0
1 2427 2506 2687 2726 2787 2815 2856 2898 2921 2977 2995 3011 3013 3053 0
1 3178 3197 3225 3291 3371 3380 3384 3461 3471 3606 3639 3642 3695 3734 0
1 3772 3783 3815 3825 3839 3840 3868 3934 3989 0
1  0
1 119 194 242 284 293 330 335 336 337 373 491 518 658 681 0
1 1033 1070 1072 1138 1170 1354 1370 1400 1405 1426 1456 1467 1627 1637 0
1 1744 1747 1771 1819 1864 1901 2028 2036 2137 2141 2176 2258 2377 2396 0
1 2663 2720 2727 2764 2808 2831 3072 3145 3160 3180 3272 3334 3370 3412 0
1 3531 3678 3695 3911 3947 0
1  0
1 16 42 102 224 273 308 310 334 342 357 383 451 611 651 0
1 673 715 729 817 856 887 891 984 997 1001 1144 1154 1165 1218 0
1 1251 1297 1317 1386 1421 1432 1520 1587 1601 1624 1640 1677 1680 1727 0
1 1797 1818 1870 1930 2033 2039 2183 2189 2263 2300 2433 2456 2492 2610 0
1 2689 2773 2823 2826 2849 2902 2927 2932 2973 3011 3041 3075 3095 3107 0
1 3260 3262 3361 3376 3410 3419 3575 3587 3594 3630 3650 3664 3777 3937 0
1  0
1 8 163 191 208 222 308 335 345 378 395 406 431 501 547 0
1 580 719 729 737 764 842 909 997 1027 1098 1210 1230 1265 1276 0
1 1365 1411 1489 1503 1707 1821 1856 1891 2155 2199 2207 2312 2492 2670 0
1 2806 2862 2905 2924 2991 3069 3104 3191 3222 3249 3292 3293 3310 3326 0
1 3459 3477 3515 3536 3545 3637 3697 3790 3797 3810 3874 3895 3985 0
1  0
1 91 149 229 256 353 364 387 526 533 537 630 652 656 780 0
1 840 855 900 922 949 1006 1117 1126 1135 1141 1167 1334 1365 1373 0
1 1475 1588 1595 1629 1679 1720 1727 1736 1769 1835 1866 1912 1927 1968 0
1 2024 2082 2136 2157 2159 2276 2348 2462 2512 2559 2738 2758 2812 2894 0
1 2916 2952 2965 2984 3051 3068 3069 3103 3134 3342 3347 3377 3415 3446 0
1 3458 3463 3497 3544 3630 3719 3945 3974 0
1  0
1 272 309 354 381 468 493 499 525 606 614 644 647 660 753 0
1 895 920 992 1179 1203 1250 1366 1402 1652 1928 1998 2062 2092 2093 0
1 2171 2208 2261 2339 2357 2403 2449 2453 2464 2520 2629 2646 2730 2745 0
1 2846 2887 2890 2918 2925 2969 2987 3154 3166 3243 3338 3346 3370 3417 0
1 3470 3473 3495 3501 3545 3552 3733 3763 3829 3834 3862 3928 3942 3995 0
1  0
1 66 146 236 248 297 375 396 500 519 822 823 838 876 877 0
1 948 1063 1081 1154 1203 1213 1218 1295 1475 1707 1708 1734 1833 1850 0
1 1958 1980 2074 2084 2144 2151 2251 2483 2490 2510 2672 2706 2731 2855 0
1 2882 2887 2922 2930 2988 3052 3080 3093 3199 3297 3339 3400 3548 3567 0
1 3690 3752 3826 3849 3875 3972 0
1  0
1 45 85 193 253 273 334 396 574 610 624 648 692 729 834 0
1 953 966 996 1064 1102 1201 1232 1245 1335 1337 1339 1359 1421 1441 0
1 1627 1642 1644 1758 1791 1799 1815 1838 1841 1948 1993 1995 2000 2109 0
1 2232 2246 2249 2266 2325 2367 2380 2505 2511 2522 2530 2605 2637 2648 0
1 2662 2670 2683 2711 2803 2812 2852 2870 2891 2909 2947 3024 3138 3163 0
1 3356 3405 3619 3640 3664 3693 3716 3773 3776 3832 3902 3981 0
1  0
1 81 129 173 200 201 223 351 438 529 649 685 727 728 730 0
1 762 874 875 903 912 919 920 967 1018 1027 1060 1084 1116 1120 0
1 1279 1345 1386 1405 1500 1547 1554 1746 1779 1795 1861 1863 1941 2013 0
1 2068 2272 2277 2281 2295 2310 2451 2453 2464 2580 2597 2608 2674 2711 0
1 3020 3081 3133 3194 3319 3420 3472 3558 3572 3584 3620 3635 3736 3752 0
1 3769 3969 0
1  0
1 7 128 238 311 379 394 411 512 525 704 727 749 759 767 0
1 1002 1067 1079 1128 1133 1154 1210 1253 1324 1440 1452 1488 1515 1585 0
1 1724 1775 1834 1867 2026 2065 2139 2226 2231 2358 2487 2524 2631 2728 0
1 2765 2841 2856 2893 3007 3067 3086 3122 3200 3202 3219 3227 3305 3319 0
1 3360 3384 3396 3476 3520 3647 3662 3772 3789 3826 3833 3844 3976 0
1  0
1 52 54 55 56 95 137 162 165 290 324 374 441 490 524 0
1 578 601 645 674 679 728 749 803 807 833 860 872 915 930 0
1 1202 1231 1260 1263 1335 1388 1403 1516 1575 1670 1686 1687 1838 1896 0
1 2066 2149 2218 2303 2310 2346 2351 2392 2414 2421 2483 2557 2594 2632 0
1 2664 2763 2824 2886 2893 2896 2928 2940 2976 3089 3143 3212 3255 3345 0
1 3437 3446 3463 3580 3624 3848 3890 3902 3931 3979 3981 3996 0
1  0
1 40 52 131 257 370 378 387 556 560 568 580 592 608 690 0
1 698 718 769 814 861 867 868 915 921 974 1023 1081 1136 1195 0
1 1257 1403 1431 1448 1475 1504 1617 1662 1683 1715 1788 1816 1839 1841 0
1 1907 1909 1939 1974 2022 2040 2097 2129 2133 2140 2197 2199 2218 2250 0
1 2455 2472 2517 2605 2731 2743 2751 2782 2815 2824 2830 2850 2861 2863 0
